************************************************************************
file with basedata            : cr454_.bas
initial value random generator: 1362941781
************************************************************************
projects                      :  1
jobs (incl. supersource/sink ):  18
horizon                       :  132
RESOURCES
  - renewable                 :  4   R
  - nonrenewable              :  2   N
  - doubly constrained        :  0   D
************************************************************************
PROJECT INFORMATION:
pronr.  #jobs rel.date duedate tardcost  MPM-Time
    1     16      0       24        9       24
************************************************************************
PRECEDENCE RELATIONS:
jobnr.    #modes  #successors   successors
   1        1          3           2   3   4
   2        3          2           8  15
   3        3          3           5   7   9
   4        3          3           6  10  17
   5        3          3           6  13  14
   6        3          1          16
   7        3          3           8  10  13
   8        3          1          11
   9        3          3          10  11  12
  10        3          2          15  16
  11        3          1          14
  12        3          2          13  16
  13        3          2          15  17
  14        3          1          17
  15        3          1          18
  16        3          1          18
  17        3          1          18
  18        1          0        
************************************************************************
REQUESTS/DURATIONS:
jobnr. mode duration  R 1  R 2  R 3  R 4  N 1  N 2
------------------------------------------------------------------------
  1      1     0       0    0    0    0    0    0
  2      1     2       9    4    2    7    4    9
         2     3       9    1    1    6    4    6
         3     3       9    3    1    4    4    8
  3      1     3      10   10    9    6    5   10
         2     8       9    9    7    6    5    9
         3     9       9    9    3    4    5    9
  4      1     7       6    5    8    8    7    5
         2     9       6    5    7    8    7    4
         3    10       5    5    4    7    6    4
  5      1     3       2    3    8    7    8   10
         2     6       2    2    5    6    5    9
         3     8       2    2    5    5    5    9
  6      1     3      10    8    6    2    8    6
         2     6       9    7    5    2    6    5
         3     8       8    7    4    2    2    3
  7      1     2       9    6    3    7    4    5
         2     4       8    6    3    5    4    5
         3     7       8    6    2    4    3    5
  8      1     7       5    7    5    4    9    8
         2     7       5    7    6    4    9    6
         3     9       3    7    5    4    5    4
  9      1     5       6    9    8   10    7    6
         2     8       6    5    7   10    5    5
         3     9       5    5    7   10    5    5
 10      1     1       3    9    9    6    9    9
         2     6       2    8    7    5    4    8
         3     8       1    6    6    3    4    8
 11      1     5       6    4    2    9    9    4
         2     7       5    3    2    9    9    3
         3     8       4    3    1    6    9    2
 12      1     5       8    8   10    8    7    7
         2     5       7    9   10    8    7    5
         3     8       7    6    8    8    6    4
 13      1     2       4    4    7    3    9    5
         2     6       3    4    7    3    8    4
         3     7       2    4    5    1    6    4
 14      1     3       6    5    8    4   10   10
         2     5       6    5    8    4    9    8
         3    10       5    3    8    3    9    6
 15      1     5       9    9    9   10    7    5
         2     8       5    4    6    8    6    4
         3     9       3    2    2    7    6    2
 16      1     1       5   10    8    8    7    8
         2     4       5    5    8    5    5    7
         3     9       2    4    7    5    4    5
 17      1     4       8    5    8    4    4    6
         2     9       6    3    8    3    4    6
         3    10       6    2    6    3    3    5
 18      1     0       0    0    0    0    0    0
************************************************************************
RESOURCEAVAILABILITIES:
  R 1  R 2  R 3  R 4  N 1  N 2
   18   21   20   21  106  105
************************************************************************
